nr_shelves = 10;
shelves = [10, 12, 6];

Product = P(1..6);

product_size = 
[|       Length: Width: Height: 
 | P(1):      5,     6,      3
 | P(2):      6,    10,      3
 | P(3):      4,     4,      4
 | P(4):      5,     7,      3
 | P(5):      6,     8,      6
 | P(6):      5,     6,      6
 |];

nr_products = [2, 4, 5, 3, 5, 6];
